
Gurobi 9.1.2 (linux64) logging started Wed Oct 13 03:00:34 2021

Changed value of parameter LogFile to /home/zongzan/dist_dnn_training/MixedMemoryOpt/data/budget_sweep/p32xlarge_VGG16_256_None/ilp_log/ilp_mixed_30893139648.log
   Prev:   Default: 
Changed value of parameter Threads to 32
   Prev: 0  Min: 0  Max: 1024  Default: 0
Changed value of parameter TimeLimit to 3600.0
   Prev: inf  Min: 0.0  Max: inf  Default: inf
Changed value of parameter OptimalityTol to 0.0001
   Prev: 1e-06  Min: 1e-09  Max: 0.01  Default: 1e-06
Parameter IntFeasTol unchanged
   Value: 1e-05  Min: 1e-09  Max: 0.1  Default: 1e-05
Changed value of parameter Presolve to 2
   Prev: -1  Min: -1  Max: 2  Default: -1
Changed value of parameter StartNodeLimit to 10000000
   Prev: -1  Min: -3  Max: 2000000000  Default: -1
Changed value of parameter TimeLimit to 300.0
   Prev: 3600.0  Min: 0.0  Max: inf  Default: inf
Gurobi Optimizer version 9.1.2 build v9.1.2rc0 (linux64)
Thread count: 28 physical cores, 56 logical processors, using up to 32 threads
Optimize a model with 61102 rows, 14040 columns and 576953 nonzeros
Model fingerprint: 0x3e3d7507
Variable types: 2025 continuous, 12015 integer (12015 binary)
Coefficient statistics:
  Matrix range     [1e+00, 5e+07]
  Objective range  [4e+00, 2e+02]
  Bounds range     [1e+00, 5e+08]
  RHS range        [1e+00, 5e+08]
Presolve removed 54203 rows and 9147 columns
Presolve time: 2.09s
Presolved: 6899 rows, 4893 columns, 37878 nonzeros
Variable types: 0 continuous, 4893 integer (3909 binary)
Found heuristic solution: objective 16906.038370
Found heuristic solution: objective 8439.7971545
Found heuristic solution: objective 3708.2630288
Presolve removed 102 rows and 88 columns
Presolved: 6797 rows, 4805 columns, 37487 nonzeros


Root relaxation: objective 3.102796e+03, 3136 iterations, 0.28 seconds

    Nodes    |    Current Node    |     Objective Bounds      |     Work
 Expl Unexpl |  Obj  Depth IntInf | Incumbent    BestBd   Gap | It/Node Time

     0     0 3102.79607    0    4 3708.26303 3102.79607  16.3%     -    2s
     0     0 3102.79607    0    3 3708.26303 3102.79607  16.3%     -    2s
H    0     0                    3179.8510398 3102.79607  2.42%     -    2s
     0     0 3102.79607    0   14 3179.85104 3102.79607  2.42%     -    3s
     0     0 3102.79607    0   19 3179.85104 3102.79607  2.42%     -    3s
H    0     0                    3102.7960686 3102.79607  0.00%     -    3s
     0     0 3102.79607    0   19 3102.79607 3102.79607  0.00%     -    3s

Explored 1 nodes (11685 simplex iterations) in 3.90 seconds
Thread count was 32 (of 56 available processors)

Solution count 5: 3102.8 3179.85 3708.26 ... 16906

Optimal solution found (tolerance 1.00e-04)
Best objective 3.102796068623e+03, best bound 3.102796068623e+03, gap 0.0000%
Changed value of parameter TimeLimit to 3600.0
   Prev: 300.0  Min: 0.0  Max: inf  Default: inf


Restarting solve


Gurobi Optimizer version 9.1.2 build v9.1.2rc0 (linux64)
Thread count: 28 physical cores, 56 logical processors, using up to 32 threads
Optimize a model with 59836 rows, 14040 columns and 575687 nonzeros
Model fingerprint: 0x37585c44
Variable types: 2025 continuous, 12015 integer (12015 binary)
Coefficient statistics:
  Matrix range     [1e+00, 5e+07]
  Objective range  [4e+00, 2e+02]
  Bounds range     [1e+00, 5e+08]
  RHS range        [1e+00, 5e+08]

MIP start from previous solve produced solution with objective 3102.8 (0.17s)
Loaded MIP start from previous solve with objective 3102.8

Presolve removed 58595 rows and 12564 columns
Presolve time: 2.99s
Presolved: 1241 rows, 1476 columns, 15524 nonzeros
Variable types: 0 continuous, 1476 integer (1475 binary)

Explored 0 nodes (0 simplex iterations) in 3.18 seconds
Thread count was 32 (of 56 available processors)

Solution count 1: 3102.8 

Optimal solution found (tolerance 1.00e-04)
Best objective 3.102796068623e+03, best bound 3.102796068623e+03, gap 0.0000%
